156	32	4	118	
10	10	10	10

0	0	0	0	0	0	3	1	29	30
1	1	1	1	0	10	1	2
2	3	8	0	1	2	1	3
3	1	5	6	0	7	1	4
4	3	5	0	3	10	1	5
5	0	3	5	5	6	1	6
6	6	6	2	0	3	3	28	27	7
7	0	2	3	3	2	1	8
8	4	4	0	3	6	2	26	9
9	3	5	5	0	7	1	10
10	7	5	0	7	1	2	25	11
11	4	0	3	4	5	1	12
12	4	0	4	1	4	1	13
13	8	0	2	3	9	1	14
14	3	0	6	7	1	1	15
15	4	1	0	1	1	1	16
16	0	4	5	4	3	1	17
17	2	5	5	0	4	1	18
18	8	0	4	4	8	1	19
19	3	7	4	0	1	1	20
20	5	3	0	2	6	1	21
21	6	3	2	0	7	1	22
22	2	2	0	5	2	1	23
23	6	3	6	0	7	1	24
24	2	2	0	3	6	1	31
25	4	0	5	3	5	1	31
26	0	5	6	8	6	1	31
27	3	5	0	5	8	1	31
28	4	0	3	8	4	1	31
29	5	4	0	4	10	1	31
30	3	4	3	0	5	1	31
31	0	0	0	0	0	0
